c Result of efficient AIG-to-CNF conversion using package CNF
p cnf 191 660
2 159 79 -126 0
2 -3 79 -126 0
-2 126 0
-2 -79 0
-2 -159 3 0
3 4 33 -43 0
-3 -4 0
-3 -33 0
-3 43 0
-4 5 19 23 30 0
4 -5 0
4 -30 0
4 -23 0
4 -19 0
5 -169 6 0
5 169 -6 0
-5 169 6 0
-5 -169 -6 0
-6 170 7 0
6 -170 0
6 -7 0
-7 171 8 0
7 -171 0
7 -8 0
-8 172 9 0
8 -172 0
8 -9 0
-9 173 10 0
9 -173 0
9 -10 0
-10 174 175 176 11 0
10 -11 0
10 -176 0
10 -174 0
10 -175 0
-11 178 179 180 12 0
11 -12 0
11 -180 0
11 -178 0
11 -179 0
-12 177 13 0
12 -177 0
12 -13 0
-13 181 14 0
13 -181 0
13 -14 0
-14 182 15 0
14 -182 0
14 -15 0
-15 183 184 185 16 0
15 -16 0
15 -185 0
15 -183 0
15 -184 0
-16 186 17 0
16 -186 0
16 -17 0
-17 187 18 0
17 -187 0
17 -18 0
-18 188 189 190 0
18 -188 0
18 -190 0
18 -189 0
19 -166 20 0
19 166 -20 0
-19 166 20 0
-19 -166 -20 0
-20 167 21 0
20 -167 0
20 -21 0
-21 168 22 0
21 -168 0
21 -22 0
-22 169 6 0
22 -169 0
22 -6 0
-23 24 25 26 0
23 -26 0
23 -25 0
23 -24 0
24 -170 7 0
24 170 -7 0
-24 170 7 0
-24 -170 -7 0
25 -172 9 0
25 172 -9 0
-25 172 9 0
-25 -172 -9 0
-26 173 10 27 0
-26 -173 -10 27 -29 0
26 -10 29 0
26 -173 10 0
26 -27 0
26 173 -10 0
27 13 -11 0
27 -11 28 0
27 177 -11 0
-27 11 0
-27 -177 -13 -28 0
28 -178 -179 -180 0
-28 178 0
-28 179 0
-28 180 0
29 -174 -175 -176 -11 0
-29 176 0
-29 11 0
-29 174 0
-29 175 0
-30 -163 -164 -31 0
-30 163 164 31 0
30 -163 31 0
30 164 -31 0
30 163 -164 0
-31 165 32 0
31 -165 0
31 -32 0
-32 166 20 0
32 -166 0
32 -20 0
-33 34 35 0
33 -34 0
33 -35 0
34 -165 32 0
34 165 -32 0
-34 165 32 0
-34 -165 -32 0
-35 36 39 41 42 0
35 -42 0
35 -41 0
35 -36 0
35 -39 0
36 -161 37 0
36 162 -37 0
36 161 -162 0
-36 -161 -162 -37 0
-36 161 162 37 0
-37 163 38 0
37 -163 0
37 -38 0
-38 164 31 0
38 -164 0
38 -31 0
39 -159 40 0
39 160 -40 0
39 159 -160 0
-39 -159 -160 -40 0
-39 159 160 40 0
-40 161 162 37 0
40 -37 0
40 -162 0
40 -161 0
41 -171 8 0
41 171 -8 0
-41 171 8 0
-41 -171 -8 0
-42 -167 -168 -22 0
-42 167 168 22 0
42 -167 22 0
42 168 -22 0
42 167 -168 0
43 44 -45 62 0
43 -44 62 -64 0
-43 -62 0
-43 -44 64 0
-43 44 45 0
44 -186 17 0
44 186 -17 0
-44 186 17 0
-44 -186 -17 0
45 46 -47 0
45 -46 -55 0
45 46 -54 0
-45 -46 55 0
-45 46 47 54 0
46 -187 18 0
46 187 -18 0
-46 187 18 0
-46 -187 -18 0
47 -48 -50 0
-47 48 0
-47 50 0
48 -188 49 0
48 188 -49 0
-48 188 49 0
-48 -188 -49 0
-49 189 190 0
49 -189 0
49 -190 0
50 51 -52 0
50 -51 -53 0
-50 -51 53 0
-50 51 52 0
51 189 -190 0
51 -189 190 0
-51 -189 -190 0
-51 189 190 0
52 -186 190 0
52 -185 -190 0
-52 186 190 0
-52 185 -190 0
53 -184 190 0
53 -183 -190 0
-53 184 190 0
-53 183 -190 0
54 -188 -189 0
54 -187 -188 -190 0
-54 188 0
-54 189 190 0
-54 187 189 0
55 48 -56 0
55 -48 -59 0
-55 -48 59 0
-55 48 56 0
56 51 -57 0
56 -51 -58 0
-56 -51 58 0
-56 51 57 0
57 -182 190 0
57 -181 -190 0
-57 182 190 0
-57 181 -190 0
58 -180 190 0
58 -179 -190 0
-58 180 190 0
-58 179 -190 0
59 51 -60 0
59 -51 -61 0
-59 -51 61 0
-59 51 60 0
60 -178 190 0
60 -177 -190 0
-60 178 190 0
-60 177 -190 0
61 -176 190 0
61 -175 -190 0
-61 176 190 0
-61 175 -190 0
-62 181 182 15 0
-62 -181 -182 -15 -63 0
62 -181 15 0
62 182 -15 0
62 181 -182 0
62 -181 63 0
63 -183 -184 -185 -16 0
-63 185 0
-63 16 0
-63 183 0
-63 184 0
64 46 -65 0
64 -46 -72 0
-64 -46 72 0
-64 46 65 0
65 48 -66 0
65 -48 -69 0
-65 -48 69 0
-65 48 66 0
66 51 -67 0
66 -51 -68 0
-66 -51 68 0
-66 51 67 0
67 -174 190 0
67 -173 -190 0
-67 174 190 0
-67 173 -190 0
68 -172 190 0
68 -171 -190 0
-68 172 190 0
-68 171 -190 0
69 51 -70 0
69 -51 -71 0
-69 -51 71 0
-69 51 70 0
70 -170 190 0
70 -169 -190 0
-70 170 190 0
-70 169 -190 0
71 -168 190 0
71 -167 -190 0
-71 168 190 0
-71 167 -190 0
72 48 -73 0
72 -48 -76 0
-72 -48 76 0
-72 48 73 0
73 51 -74 0
73 -51 -75 0
-73 -51 75 0
-73 51 74 0
74 -166 190 0
74 -165 -190 0
-74 166 190 0
-74 165 -190 0
75 -164 190 0
75 -163 -190 0
-75 164 190 0
-75 163 -190 0
76 51 -77 0
76 -51 -78 0
-76 -51 78 0
-76 51 77 0
77 -162 190 0
77 -161 -190 0
-77 162 190 0
-77 161 -190 0
78 -160 190 0
78 -159 -190 0
-78 160 190 0
-78 159 -190 0
79 62 80 -119 0
79 62 80 -82 0
-79 -62 0
-79 -80 0
-79 82 119 0
-80 165 166 20 81 0
-80 -165 -166 -20 81 0
80 -165 20 0
80 166 -20 0
80 -81 0
80 165 -166 0
-81 5 23 30 35 0
81 -5 0
81 -35 0
81 -30 0
81 -23 0
-82 44 98 0
-82 -44 83 93 0
82 -44 -83 0
82 44 -98 0
82 -44 -93 0
83 46 -84 0
83 -46 48 -91 0
-83 -46 -48 0
-83 46 84 0
-83 -46 91 0
84 48 -85 0
84 -48 -88 0
-84 -48 88 0
-84 48 85 0
85 51 -86 0
85 -51 -87 0
-85 -51 87 0
-85 51 86 0
86 -169 190 0
86 -168 -190 0
-86 169 190 0
-86 168 -190 0
87 -167 190 0
87 -166 -190 0
-87 167 190 0
-87 166 -190 0
88 51 -89 0
88 -51 -90 0
-88 -51 90 0
-88 51 89 0
89 -165 190 0
89 -164 -190 0
-89 165 190 0
-89 164 -190 0
90 -163 190 0
90 -162 -190 0
-90 163 190 0
-90 162 -190 0
91 51 -92 0
91 -159 190 -51 0
-91 51 92 0
-91 159 -51 0
-91 -190 -51 0
92 -161 190 0
92 -160 -190 0
-92 161 190 0
-92 160 -190 0
93 46 -94 0
93 -46 48 -97 0
-93 -46 -48 0
-93 46 94 0
-93 -46 97 0
94 48 -95 0
94 -48 -96 0
-94 -48 96 0
-94 48 95 0
95 51 -71 0
95 -51 -74 0
-95 -51 74 0
-95 51 71 0
96 51 -75 0
96 -51 -77 0
-96 -51 77 0
-96 51 75 0
97 -159 -190 51 0
97 -160 190 51 0
-97 -51 0
-97 160 190 0
-97 159 -190 0
-98 46 109 0
-98 -46 99 106 0
98 -46 -99 0
98 46 -109 0
98 -46 -106 0
99 48 -100 0
99 -48 -103 0
-99 -48 103 0
-99 48 100 0
100 51 -101 0
100 -51 -102 0
-100 -51 102 0
-100 51 101 0
101 -177 190 0
101 -176 -190 0
-101 177 190 0
-101 176 -190 0
102 -175 190 0
102 -174 -190 0
-102 175 190 0
-102 174 -190 0
103 51 -104 0
103 -51 -105 0
-103 -51 105 0
-103 51 104 0
104 -173 190 0
104 -172 -190 0
-104 173 190 0
-104 172 -190 0
105 -171 190 0
105 -170 -190 0
-105 171 190 0
-105 170 -190 0
106 48 -107 0
106 -48 -108 0
-106 -48 108 0
-106 48 107 0
107 51 -61 0
107 -51 -67 0
-107 -51 67 0
-107 51 61 0
108 51 -68 0
108 -51 -70 0
-108 -51 70 0
-108 51 68 0
-109 48 114 0
-109 -48 110 111 0
109 -48 -110 0
109 48 -114 0
109 -48 -111 0
110 51 -58 0
110 -51 -60 0
-110 -51 60 0
-110 51 58 0
111 51 -112 0
111 -51 -113 0
-111 -51 113 0
-111 51 112 0
112 -181 190 0
112 -180 -190 0
-112 181 190 0
-112 180 -190 0
113 -179 190 0
113 -178 -190 0
-113 179 190 0
-113 178 -190 0
-114 115 116 0
114 -115 0
114 -116 0
115 51 -53 0
115 -51 -57 0
-115 -51 57 0
-115 51 53 0
116 51 -117 0
116 -51 -118 0
-116 -51 118 0
-116 51 117 0
117 -185 190 0
117 -184 -190 0
-117 185 190 0
-117 184 -190 0
118 -183 190 0
118 -182 -190 0
-118 183 190 0
-118 182 -190 0
-119 -44 120 0
-119 44 122 0
119 44 -122 0
119 -44 -120 0
-120 -46 0
-120 72 121 0
120 46 -72 0
120 46 -121 0
121 48 -88 0
121 -48 -91 0
-121 -48 91 0
-121 48 88 0
-122 46 124 0
-122 -46 65 123 0
122 -46 -65 0
122 46 -124 0
122 -46 -123 0
123 -48 -85 0
123 48 -103 0
-123 48 103 0
-123 -48 85 0
-124 55 125 0
124 -55 0
124 -125 0
125 -48 -100 0
125 48 -111 0
-125 48 111 0
-125 -48 100 0
-126 159 127 0
-126 175 -127 0
-126 -127 -141 0
126 -159 127 0
126 -175 -127 141 0
127 128 131 135 -136 0
-127 136 0
-127 -128 0
-127 -135 0
-127 -131 0
-128 129 36 39 130 0
128 -130 0
128 -39 0
128 -129 0
128 -36 0
129 -163 38 0
129 163 -38 0
-129 163 38 0
-129 -163 -38 0
130 -167 21 0
130 167 -21 0
-130 167 21 0
-130 -167 -21 0
-131 19 132 -133 0
-131 19 132 44 0
131 -19 0
131 -132 0
131 -44 133 0
132 -168 22 0
132 168 -22 0
-132 168 22 0
-132 -168 -22 0
133 46 -134 0
133 -46 48 -76 0
-133 -46 -48 0
-133 46 134 0
-133 -46 76 0
134 48 -69 0
134 -48 -73 0
-134 -48 73 0
-134 48 69 0
-135 164 165 5 32 0
-135 -164 -165 5 -32 0
135 165 -32 0
135 164 -165 0
135 -5 0
135 -164 32 0
136 170 171 8 -137 0
136 -170 -171 -8 -137 0
-136 -170 8 0
-136 171 -8 0
-136 137 0
-136 170 -171 0
137 25 26 62 -138 0
-137 -25 0
-137 138 0
-137 -62 0
-137 -26 0
-138 44 -46 140 0
-138 44 46 139 0
138 -44 0
138 -46 -140 0
138 46 -139 0
139 48 -50 0
139 -48 -56 0
-139 -48 56 0
-139 48 50 0
140 48 -59 0
140 -48 -66 0
-140 -48 66 0
-140 48 59 0
141 -142 -151 158 0
141 -142 151 157 0
-141 142 0
-141 -151 -158 0
-141 151 -157 0
142 62 80 -143 148 0
-142 -80 0
-142 -148 0
-142 -62 0
-142 143 0
-143 44 -46 147 0
-143 44 46 144 0
143 -44 0
143 -46 -147 0
143 46 -144 0
144 -48 -115 0
144 48 145 -146 0
-144 -48 115 0
-144 48 146 0
-144 48 -145 0
145 187 -189 -190 0
-145 190 0
-145 189 0
-145 -187 0
146 -18 51 0
146 -18 -52 0
-146 18 0
-146 -51 52 0
147 -48 -107 0
147 48 -110 0
-147 48 110 0
-147 -48 107 0
148 -44 -46 150 0
148 -44 46 149 0
-148 44 0
-148 -46 -150 0
-148 46 -149 0
149 -48 -95 0
149 48 -108 0
-149 48 108 0
-149 -48 95 0
150 48 -96 0
150 -48 -97 0
-150 -48 97 0
-150 48 96 0
151 4 33 -152 0
-151 -4 0
-151 -33 0
-151 152 0
152 -44 62 -156 0
152 44 62 -153 0
-152 -62 0
-152 -44 156 0
-152 44 153 0
153 -46 -125 0
153 46 -154 0
-153 46 154 0
-153 -46 125 0
154 -48 -116 0
154 48 -155 0
-154 -48 116 0
-154 48 155 0
-155 187 190 0
-155 186 189 0
-155 189 190 0
155 -187 -189 0
155 -186 -190 0
155 -189 -190 0
156 -46 -121 0
156 46 -123 0
-156 46 123 0
-156 -46 121 0
-157 187 3 0
-157 188 -3 0
157 -188 -3 0
157 -187 3 0
-158 189 3 0
-158 190 -3 0
158 -190 -3 0
158 -189 3 0
-191 0
2 0

